CPXPARAM_TimeLimit                               7200
CPXPARAM_Read_DataCheck                          1
Parallel mode: deterministic, using up to 8 threads for concurrent optimization.
Tried aggregator 1 time.
LP Presolve eliminated 876 rows and 0 columns.
Reduced LP has 9234 rows, 1801 columns, and 26976 nonzeros.
Presolve time = 0.00 sec. (4.56 ticks)

Iteration log . . .
Iteration:     1   Dual objective     =           963.000000
Perturbation started.
Iteration:   215   Dual objective     =           963.000000
Initializing dual steep norms . . .
Iteration:   216   Dual objective     =           963.000051
Iteration:   478   Dual objective     =           963.013142
Iteration:   735   Dual objective     =           963.013756
Iteration:   940   Dual objective     =           963.013970
Iteration:  1177   Dual objective     =           963.014049
Iteration:  1351   Dual objective     =           963.014877
Iteration:  1595   Dual objective     =           963.014895
Iteration:  1860   Dual objective     =           963.015129
Iteration:  2222   Dual objective     =           963.015613
Iteration:  2476   Dual objective     =           963.015680
Removing perturbation.

Dual simplex solved model.

